CMD:
./solvers/bin/cadical --plain --no-reduce -t 1600 ./data/cnfs//oski15a10b03s/oski15a10b03s.18.cnf

c --- [ banner ] -------------------------------------------------------------
c 
c CaDiCaL SAT Solver
c Copyright (c) 2016-2024
c A. Biere, M. Fleury, N. Froleyks, K. Fazekas, F. Pollitt, T. Faller
c JKU Linz, University of Freiburg, TU Wien
c 
c Version 2.1.3 5296d3d2a9bf48c154ab2acb5e44625776d821bf
c g++ (Gentoo 12.3.1_p20230526 p2) 12.3.1 20230526 -Wall -Wextra -O3 -DNDEBUG
c Sat Aug 9 07:26:21 PDT 2025 Linux cedar2.int.cedar.computecanada.ca 5.14.0-362.24.2.el9_3.x86_64 x86_64
c 
c --- [ limit ] --------------------------------------------------------------
c 
c setting time limit to 1600 seconds real time (due to '-t 1600')
c 
c --- [ parsing input ] ------------------------------------------------------
c 
c reading DIMACS file from './data/cnfs//oski15a10b03s/oski15a10b03s.18.cnf'
c opening file to read './data/cnfs//oski15a10b03s/oski15a10b03s.18.cnf'
c found 'p cnf 1039428 3026594' header
c parsed 3026594 clauses in 0.50 seconds process time
c 
c --- [ options ] ------------------------------------------------------------
c 
c   --compact=false                (different from default 'true')
c   --decompose=false              (different from default 'true')
c   --deduplicate=false            (different from default 'true')
c   --elim=false                   (different from default 'true')
c   --probe=false                  (different from default 'true')
c   --reduce=false                 (different from default 'true')
c   --subsume=false                (different from default 'true')
c   --ternary=false                (different from default 'true')
c   --transred=false               (different from default 'true')
c   --vivify=false                 (different from default 'true')
c 
c --- [ solving ] ------------------------------------------------------------
c 
c time measured in process time since initialization
c 
c  seconds   reductions  redundant   irredundant
c          MB    restarts       trail        variables
c           level   conflicts       glue           remaining
c 
c *  0.50 405  0 0   0    0    0  0% 0 2357679 702960 68%
c {  0.52 407  0 0   0    0    0  0% 0 2357679 702960 68%
c i  0.58 407 467 0   1   82   60 35% 2 2357679 702959 68%
c i  0.58 407 478 0   1   83   60 35% 2 2357679 702951 68%
c i  0.58 407 488 0   1   84   60 35% 2 2357679 702943 68%
c i  0.59 407 499 0   1   85   60 35% 2 2357679 702935 68%
c i  0.59 407 509 0   1   86   60 35% 2 2357679 702927 68%
c i  0.59 407 519 0   1   87   60 35% 2 2357679 702913 68%
c i  0.59 407 573 0   1   93   65 36% 2 2357679 702905 68%
c i  0.59 407 582 0   1   94   65 36% 2 2357679 702897 68%
c i  0.59 407 590 0   1   95   65 36% 2 2357679 702889 68%
c i  0.59 407 598 0   1   96   65 36% 2 2357679 702881 68%
c i  0.59 407 606 0   1   97   65 36% 2 2357679 702867 68%
c i  0.60 407 650 0   1  103   70 37% 2 2357679 702857 68%
c i  0.60 407 657 0   1  104   70 37% 1 2357679 702847 68%
c i  0.60 407 664 0   1  105   70 37% 1 2357679 702837 68%
c i  0.60 407 671 0   1  106   70 37% 1 2357679 702827 68%
c i  0.60 407 677 0   1  107   70 37% 1 2357679 702811 68%
c i  0.62 407 842 0   1  144  104 39% 1 2357679 702803 68%
c i  0.62 407 855 0   1  148  105 40% 1 2357679 702795 68%
c 
c  seconds    reductions  redundant   irredundant
c          MB     restarts       trail        variables
c            level   conflicts       glue           remaining
c 
c i  0.62 407 862 0   1  151  106 40% 1 2357679 702787 68%
c i  0.62 407 868 0   1  153  107 40% 1 2357679 702779 68%
c i  0.62 407 885 0   1  163  112 40% 1 2357679 702765 68%
c i  0.62 407 893 0   1  166  114 40% 1 2357679 702761 68%
c i  0.68 411 837 0  14  246  187 40% 2 2357679 702756 68%
c i  0.69 411 776 0  20  266  205 40% 2 2357679 702752 68%
c i  0.71 411 640 0  36  334  266 39% 2 2357679 702744 68%
c i  0.76 411 538 0  57  405  332 38% 2 2357679 702740 68%
c i  0.78 411 512 0  60  433  355 38% 2 2357679 702736 68%
c i  0.80 411 480 0  66  470  387 38% 2 2357679 702732 68%
c i  0.81 411 453 0  72  499  414 37% 2 2357679 702728 68%
c i  0.89 411 421 0  85  557  464 38% 2 2357679 702724 68%
c i  0.91 411 417 0  87  564  470 38% 2 2357679 702720 68%
c i  0.91 411 413 0  89  569  474 38% 2 2357679 702718 68%
c i  0.99 411 351 0 120  690  588 37% 2 2357679 702711 68%
c i  0.99 411 351 0 120  691  588 37% 2 2357679 702710 68%
c i  0.99 411 350 0 120  692  588 37% 2 2357679 702704 68%
c i  1.00 411 344 0 121  706  600 37% 2 2357679 702697 68%
c i  1.00 411 342 0 122  712  603 37% 2 2357679 702690 68%
c i  1.04 411 296 0 135  863  737 37% 2 2357679 702676 68%
c 
c  seconds    reductions  redundant   irredundant
c          MB     restarts       trail        variables
c            level   conflicts       glue           remaining
c 
c i  1.07 411 275 0 152  946  815 36% 2 2357679 702669 68%
c i  1.07 411 262 0 163  992  849 36% 2 2357679 702655 68%
c }  1.08 411 260 0 163 1000  857 36% 2 2357679 702655 68%
c [  1.08 411  0 0 163 1000  857  0% 0 2357679 702655 68%
... skipped 105048 lines ...
v -1038978 -1038979 1038980 1038981 -1038982 -1038983 1038984 1038985 -1038986
v -1038987 -1038988 1038989 1038990 -1038991 -1038992 1038993 1038994 -1038995
v -1038996 -1038997 1038998 1038999 -1039000 -1039001 1039002 1039003 -1039004
v -1039005 -1039006 1039007 1039008 -1039009 -1039010 1039011 1039012 -1039013
v -1039014 -1039015 1039016 1039017 -1039018 -1039019 1039020 1039021 -1039022
v -1039023 -1039024 1039025 1039026 -1039027 -1039028 1039029 1039030 -1039031
v -1039032 -1039033 1039034 1039035 -1039036 -1039037 1039038 1039039 -1039040
v -1039041 -1039042 1039043 1039044 -1039045 -1039046 1039047 1039048 -1039049
v -1039050 -1039051 1039052 1039053 -1039054 -1039055 1039056 1039057 -1039058
v -1039059 -1039060 1039061 1039062 -1039063 -1039064 1039065 1039066 -1039067
v -1039068 -1039069 1039070 1039071 -1039072 -1039073 -1039074 -1039075
v 1039076 -1039077 -1039078 1039079 1039080 -1039081 -1039082 -1039083
v -1039084 -1039085 1039086 -1039087 1039088 1039089 -1039090 -1039091
v -1039092 -1039093 1039094 -1039095 -1039096 1039097 1039098 -1039099
v -1039100 -1039101 -1039102 1039103 -1039104 -1039105 1039106 1039107
v -1039108 -1039109 1039110 1039111 -1039112 -1039113 -1039114 1039115 1039116
v -1039117 -1039118 1039119 1039120 -1039121 -1039122 -1039123 1039124 1039125
v -1039126 -1039127 1039128 1039129 -1039130 -1039131 -1039132 1039133 1039134
v -1039135 -1039136 1039137 1039138 -1039139 -1039140 -1039141 1039142 1039143
v -1039144 -1039145 1039146 1039147 -1039148 -1039149 -1039150 1039151 1039152
v -1039153 -1039154 1039155 1039156 -1039157 -1039158 -1039159 1039160 1039161
v -1039162 -1039163 1039164 1039165 -1039166 -1039167 -1039168 1039169 1039170
v -1039171 -1039172 1039173 1039174 -1039175 -1039176 -1039177 1039178 1039179
v -1039180 -1039181 1039182 1039183 -1039184 -1039185 -1039186 1039187 1039188
v -1039189 -1039190 1039191 1039192 -1039193 -1039194 -1039195 1039196 1039197
v -1039198 -1039199 1039200 1039201 -1039202 -1039203 -1039204 1039205 1039206
v -1039207 -1039208 1039209 1039210 -1039211 -1039212 -1039213 1039214 1039215
v -1039216 -1039217 -1039218 -1039219 1039220 -1039221 -1039222 1039223
v 1039224 -1039225 -1039226 -1039227 -1039228 -1039229 1039230 -1039231
v 1039232 1039233 -1039234 -1039235 -1039236 -1039237 1039238 -1039239
v -1039240 1039241 1039242 -1039243 -1039244 -1039245 -1039246 1039247
v -1039248 -1039249 1039250 1039251 -1039252 -1039253 1039254 1039255 -1039256
v -1039257 -1039258 1039259 1039260 -1039261 -1039262 1039263 1039264 -1039265
v -1039266 -1039267 1039268 1039269 -1039270 -1039271 1039272 1039273 -1039274
v -1039275 -1039276 1039277 1039278 -1039279 -1039280 1039281 1039282 -1039283
v -1039284 -1039285 1039286 1039287 -1039288 -1039289 1039290 1039291 -1039292
v -1039293 -1039294 1039295 1039296 -1039297 -1039298 1039299 1039300 -1039301
v -1039302 -1039303 1039304 1039305 -1039306 -1039307 1039308 1039309 -1039310
v -1039311 -1039312 1039313 1039314 -1039315 -1039316 1039317 1039318 -1039319
v -1039320 -1039321 1039322 1039323 -1039324 -1039325 1039326 1039327 -1039328
v -1039329 -1039330 1039331 1039332 -1039333 -1039334 1039335 1039336 -1039337
v -1039338 -1039339 1039340 1039341 -1039342 -1039343 1039344 1039345 -1039346
v -1039347 -1039348 1039349 1039350 -1039351 -1039352 1039353 1039354 -1039355
v -1039356 -1039357 1039358 1039359 -1039360 -1039361 -1039362 -1039363
v 1039364 -1039365 -1039366 1039367 1039368 -1039369 -1039370 -1039371
v -1039372 -1039373 1039374 -1039375 1039376 1039377 -1039378 -1039379
v -1039380 -1039381 1039382 -1039383 -1039384 1039385 1039386 -1039387
v -1039388 -1039389 -1039390 1039391 -1039392 -1039393 1039394 1039395
v -1039396 -1039397 1039398 1039399 -1039400 -1039401 -1039402 1039403 1039404
v -1039405 -1039406 1039407 1039408 -1039409 -1039410 -1039411 -1039412
v 1039413 -1039414 -1039415 1039416 1039417 -1039418 -1039419 1039420 -1039421
v -1039422 1039423 1039424 -1039425 -1039426 1039427 -1039428 0
c 
c --- [ run-time profiling ] -------------------------------------------------
c 
c process time taken by individual solving procedures
c (percentage relative to process time for solving)
c 
c         1.07   99.84% search
c         0.55   51.48% unstable
c         0.50   46.56% parse
c         0.49   46.17% stable
c         0.02    2.18% lucky
c         0.00    0.00% simplify
c   =================================
c         1.07   66.01% solve
c 
c last line shows process time for solving
c (percentage relative to total process time)
c 
c --- [ statistics ] ---------------------------------------------------------
c 
c chronological:               794        55.60 %  of conflicts
c conflicts:                  1428      1333.49    per second
c decisions:                 29915     27935.05    per second
c fixed:                    337012        32.42 %  of all variables
c learned:                    1358        95.10 %  per conflict
c learned_lits:               6145       100.00 %  learned literals
c minimized:                     0         0.00 %  learned literals
c shrunken:                    746        12.14 %  learned literals
c minishrunken:                139         2.26 %  learned literals
c otfs:                         24         1.68 %  of conflict
c propagations:            6402414         5.98 M  per second
c rephased:                      1      1428.00    interval
c restarts:                    163         8.76    interval
c stabilizing:                   1        29.97 %  of conflicts
c subsumed:                     42         0.00 %  of all clauses
c strengthened:                 24         0.00 %  of all clauses
c 
c seconds are measured in process time for solving
c 
c --- [ resources ] ----------------------------------------------------------
c 
c total process time since initialization:         1.62    seconds
c total real time since initialization:            1.65    seconds
c maximum resident set size of process:          411.89    MB
c 
c --- [ shutting down ] ------------------------------------------------------
c 
c exit 10
